analyze/results_flowersnark/final_miplib_symretope_if_extended_generating_set_cpx_v802__settings_final_nosym_norestarts__3__square37.mps.gz.sol
solution status: optimal solution found
objective value:                                   15
x_1_1_20                                            1 	(obj:1)
x_1_21_17                                           1 	(obj:1)
x_18_21_3                                           1 	(obj:1)
x_18_24_5                                           1 	(obj:1)
x_18_29_9                                           1 	(obj:1)
x_21_1_17                                           1 	(obj:1)
x_21_18_4                                           1 	(obj:1)
x_21_22_2                                           1 	(obj:1)
x_23_22_3                                           1 	(obj:1)
x_23_25_4                                           1 	(obj:1)
x_25_18_4                                           1 	(obj:1)
x_26_22_3                                           1 	(obj:1)
x_27_25_2                                           1 	(obj:1)
x_27_27_11                                          1 	(obj:1)
x_29_18_9                                           1 	(obj:1)
y_20                                                1 	(obj:0)
y_17                                                2 	(obj:0)
y_11                                                1 	(obj:0)
y_9                                                 2 	(obj:0)
y_5                                                 1 	(obj:0)
y_4                                                 3 	(obj:0)
y_3                                                 3 	(obj:0)
y_2                                                 2 	(obj:0)
