analyze/results_flowersnark/final_miplib_symretope_if_extended_generating_set_cpx_v802__settings_final_nosym_norestarts__3__square37.mps.gz.out
FILENAME:   /home/mcs001/s132664/testsets/IP/miplib2017/square37.mps.gz
SETTINGS:   settings_final_nosym_norestarts
TIMELIMIT:  7200
OUTPUTNAME: final_miplib_symretope_if_extended_generating_set_cpx_v802__settings_final_nosym_norestarts__3__
BINNAME:    bin/sbcs.linux.x86_64.gnu.opt.cpx
BASENAME:   square37.mps.gz
SEED:       3
@01 /home/mcs001/s132664/testsets/IP/miplib2017/square37.mps.gz ===========
@02 square37.mps.gz
@03 1686663617
SCIP version 8.0.2 [precision: 8 byte] [memory: block] [mode: optimized] [LP solver: CPLEX 20.1.0.0] [GitHash: 5f0473c]
Copyright (C) 2002-2022 Konrad-Zuse-Zentrum fuer Informationstechnik Berlin (ZIB)

Symretope propagation methods - (c) Jasper van Doornmalen, Christopher Hojny.
[GitHash: 2fd0484]

reading parameter file <../settings/settings_final_nosym_norestarts.set> ...

Changed settings:
limits/time = 7200
limits/restarts = 0
misc/usesymmetry = 0
randomization/randomseedshift = 3
constraints/orbisack/sepafreq = -1
constraints/symresack/sepafreq = -1
propagating/symmetry/detectsubgroups = FALSE
propagating/symmetry/usesymretopes = FALSE
propagating/symmetry/relabelsymretopes = 0
propagating/symmetry/ofsymcomptiming = 0
constraints/symretope/sepafreq = -1
constraints/symretope/peek = FALSE


solving problem ...

original problem has 49320 variables (49284 bin, 36 int, 0 impl, 0 cont) and 33150 constraints
presolving:
(round 1, fast)       31710 del vars, 31710 del conss, 0 add conss, 31746 chg bounds, 0 chg sides, 0 chg coeffs, 0 upgd conss, 0 impls, 1369 clqs
(round 2, exhaustive) 31710 del vars, 31710 del conss, 0 add conss, 31746 chg bounds, 0 chg sides, 0 chg coeffs, 1369 upgd conss, 0 impls, 1369 clqs
(round 3, exhaustive) 31710 del vars, 31734 del conss, 0 add conss, 31746 chg bounds, 24 chg sides, 0 chg coeffs, 1369 upgd conss, 0 impls, 1369 clqs
   (37.8s) probing: 1000/17574 (5.7%) - 0 fixings, 0 aggregations, 26501 implications, 0 bound changes
   (37.8s) probing: 1001/17574 (5.7%) - 0 fixings, 0 aggregations, 26531 implications, 0 bound changes
   (37.8s) probing aborted: 1000/1000 successive useless probings
presolving (4 rounds: 4 fast, 3 medium, 3 exhaustive):
 31710 deleted vars, 31734 deleted constraints, 0 added constraints, 31746 tightened bounds, 0 added holes, 24 changed sides, 0 changed coefficients
 26421 implications, 1479 cliques
presolved problem has 17610 variables (17574 bin, 36 int, 0 impl, 0 cont) and 1416 constraints
   1369 constraints of type <setppc>
     47 constraints of type <linear>
transformed objective value is always integral (scale: 1)
Presolving Time: 36.75

 time | node  | left  |LP iter|LP it/n|mem/heur|mdpt |vars |cons |rows |cuts |sepa|confs|strbr|  dualbound   | primalbound  |  gap   | compl. 
p41.2s|     1 |     0 |     0 |     - |  clique|   0 |  17k|1416 |1416 |   0 |  0 |   0 |   0 | 4.000000e+00 | 4.000000e+01 | 900.00%| unknown
 88.4s|     1 |     0 |  1503 |     - |  3190M |   0 |  17k|1430 |1416 |   0 |  0 |  28 |   0 | 8.666667e+00 | 4.000000e+01 | 361.54%| unknown
  355s|     1 |     2 | 20500 |     - |  3195M |   0 |  17k|1428 |1416 |   0 |  2 |  28 |  32 | 8.791851e+00 | 4.000000e+01 | 354.97%| unknown
* 422s|     3 |     2 | 25314 |11913.0 |strongbr|   2 |  17k|1416 |1416 |   0 |  1 |  28 |  59 | 8.791851e+00 | 1.600000e+01 |  81.99%| unknown
* 563s|     7 |     2 | 37836 |6058.0 |    LP  |   4 |  17k|1427 |1416 |   0 |  3 |  66 | 173 | 8.791851e+00 | 1.500000e+01 |  70.61%|  19.40%
  850s|   100 |    19 |166303 |1664.8 |  3229M |  22 |  17k|1462 |1416 |   0 |  2 | 107 | 276 | 9.082281e+00 | 1.500000e+01 |  65.16%|  56.89%
 1430s|   200 |    57 |428304 |2144.8 |  3269M |  26 |  17k|1543 |1416 |   0 |  0 | 373 | 386 | 9.571800e+00 | 1.500000e+01 |  56.71%|  60.19%
 1733s|   300 |    83 |595079 |1985.3 |  3287M |  31 |  17k|1623 |1416 |   0 |  0 | 547 | 492 | 1.108481e+01 | 1.500000e+01 |  35.32%|  69.26%
 1924s|   400 |    91 |724261 |1811.5 |  3306M |  36 |  17k|1561 |1416 |   0 |  1 | 629 | 574 | 1.125607e+01 | 1.500000e+01 |  33.26%|  71.01%
 2101s|   500 |    99 |858931 |1718.3 |  3340M |  43 |  17k|1598 |1416 |   0 |  0 | 810 | 663 | 1.155059e+01 | 1.500000e+01 |  29.86%|  73.31%
 2178s|   600 |   103 |922925 |1538.3 |  3353M |  46 |  17k|1752 |1416 |   0 |  2 | 986 | 732 | 1.166230e+01 | 1.500000e+01 |  28.62%|  74.94%
 2262s|   700 |    95 |  1002k|1431.6 |  3369M |  54 |  17k|1897 |1416 |   0 |  0 |1153 | 810 | 1.183450e+01 | 1.500000e+01 |  26.75%|  76.92%
 2365s|   800 |    85 |  1092k|1365.8 |  3392M |  54 |  17k|1892 |1416 |   0 |  0 |1292 | 906 | 1.198384e+01 | 1.500000e+01 |  25.17%|  77.95%
 2451s|   900 |    85 |  1176k|1306.6 |  3398M |  58 |  17k|1826 |1416 |   0 |  0 |1320 | 957 | 1.201158e+01 | 1.500000e+01 |  24.88%|  79.95%
 2529s|  1000 |    81 |  1246k|1246.4 |  3406M |  65 |  17k|1784 |1416 |   0 |  0 |1365 | 999 | 1.235515e+01 | 1.500000e+01 |  21.41%|  82.18%
 time | node  | left  |LP iter|LP it/n|mem/heur|mdpt |vars |cons |rows |cuts |sepa|confs|strbr|  dualbound   | primalbound  |  gap   | compl. 
 2634s|  1100 |    55 |  1328k|1207.7 |  3430M |  65 |  17k|2007 |1416 |   0 |  2 |1689 |1132 | 1.262318e+01 | 1.500000e+01 |  18.83%|  84.84%
 2742s|  1200 |    21 |  1403k|1169.2 |  3463M |  72 |  17k|2287 |1416 |   0 |  0 |2309 |1285 | 1.313185e+01 | 1.500000e+01 |  14.23%|  88.83%

SCIP Status        : problem is solved [optimal solution found]
Solving Time (sec) : 2766.44
Solving Nodes      : 1235
Primal Bound       : +1.50000000000000e+01 (3 solutions)
Dual Bound         : +1.50000000000000e+01
Gap                : 0.00 %
SCIP Status        : problem is solved [optimal solution found]
Total Time         :    2771.92
  solving          :    2766.44
  presolving       :      36.75 (included in solving)
  reading          :       5.47
  copying          :       3.03 (13 #copies) (minimal 0.22, maximal 0.25, average 0.23)
Original Problem   :
  Problem name     : square37
  Variables        : 49320 (49284 binary, 36 integer, 0 implicit integer, 0 continuous)
  Constraints      : 33150 initial, 33150 maximal
  Objective        : minimize, 49284 non-zeros (abs.min = 1, abs.max = 1)
Presolved Problem  :
  Problem name     : t_square37
  Variables        : 17610 (17574 binary, 36 integer, 0 implicit integer, 0 continuous)
  Constraints      : 1416 initial, 2334 maximal
  Objective        : minimize, 17430 non-zeros (abs.min = 1, abs.max = 1)
  Nonzeros         : 2657755 constraint, 1964050 clique table
Presolvers         :   ExecTime  SetupTime  Calls  FixedVars   AggrVars   ChgTypes  ChgBounds   AddHoles    DelCons    AddCons   ChgSides   ChgCoefs
  boundshift       :       0.00       0.00      0          0          0          0          0          0          0          0          0          0
  convertinttobin  :       0.00       0.00      0          0          0          0          0          0          0          0          0          0
  domcol           :       0.45       0.00      1          0          0          0          0          0          0          0          0          0
  dualagg          :       0.00       0.00      0          0          0          0          0          0          0          0          0          0
  dualcomp         :       0.00       0.00      0          0          0          0          0          0          0          0          0          0
  dualinfer        :       0.00       0.00      0          0          0          0          0          0          0          0          0          0
  dualsparsify     :       2.04       0.00      1          0          0          0          0          0          0          0          0          0
  gateextraction   :       0.00       0.00      0          0          0          0          0          0          0          0          0          0
  implics          :       0.00       0.00      3          0          0          0          0          0          0          0          0          0
  inttobinary      :       0.00       0.00      4          0          0          0          0          0          0          0          0          0
  qpkktref         :       0.00       0.00      0          0          0          0          0          0          0          0          0          0
  redvub           :       0.00       0.00      0          0          0          0          0          0          0          0          0          0
  sparsify         :       1.20       0.00      1          0          0          0          0          0          0          0          0          0
  stuffing         :       0.00       0.00      0          0          0          0          0          0          0          0          0          0
  trivial          :       0.01       0.00      4          0          0          0          0          0          0          0          0          0
  tworowbnd        :       0.00       0.00      0          0          0          0          0          0          0          0          0          0
  dualfix          :       0.00       0.00      4          0          0          0          0          0          0          0          0          0
  genvbounds       :       0.00       0.00      0          0          0          0          0          0          0          0          0          0
  probing          :      19.63       0.00      1          0          0          0          0          0          0          0          0          0
  pseudoobj        :       0.00       0.00      0          0          0          0          0          0          0          0          0          0
  symmetry         :       0.00       0.00      0          0          0          0          0          0          0          0          0          0
  vbounds          :       0.04       0.00      1          0          0          0          0          0          0          0          0          0
  knapsack         :       0.00       0.00      0          0          0          0          0          0          0          0          0          0
  setppc           :       0.74       0.02      6          0          0          0          0          0          0          0          0          0
  linear           :      11.47       2.36      7      31710          0          0      31746          0      31734          0         24          0
  logicor          :       0.00       0.00      0          0          0          0          0          0          0          0          0          0
  bounddisjunction :       0.00       0.00      0          0          0          0          0          0          0          0          0          0
  benders          :       0.00       0.00      0          0          0          0          0          0          0          0          0          0
  components       :       0.42       0.00      1          0          0          0          0          0          0          0          0          0
  root node        :          -          -      -       1088          -          -       1133          -          -          -          -          -
Constraints        :     Number  MaxNumber  #Separate #Propagate    #EnfoLP    #EnfoRelax  #EnfoPS    #Check   #ResProp    Cutoffs    DomReds       Cuts    Applied      Conss   Children
  benderslp        :          0          0          0          0        770          0          0         44          0          0          0          0          0          0          0
  integral         :          0          0          0          0        770          0          0         44          0          0       1074          0          0       1329       1234
  knapsack         :          0+        10          0       7013          0          0          0          0        175          0         97          0          0          0          0
  setppc           :       1369+      1388          1      18567          1          0          0         38     850174        141     828252          0          0          0          0
  linear           :         47+        48          1      18426          1          0          0          2     115755         44      22545          0          0          0          0
  logicor          :          0+       196          1       2433          0          0          0          0        139          1          9          0          0          0          0
  bounddisjunction :          0+       743          0       3218          0          0          0          0        571          2         11          0          0          0          0
  benders          :          0          0          0          0          1          0          0          3          0          0          0          0          0          0          0
  countsols        :          0          0          0          0          1          0          0          3          0          0          0          0          0          0          0
  components       :          0          0          0          0          0          0          0          0          0          0          0          0          0          0          0
Constraint Timings :  TotalTime  SetupTime   Separate  Propagate     EnfoLP     EnfoPS     EnfoRelax   Check    ResProp    SB-Prop
  benderslp        :       0.00       0.00       0.00       0.00       0.00       0.00       0.00       0.00       0.00       0.00
  integral         :    1037.61       0.00       0.00       0.00    1037.59       0.00       0.00       0.02       0.00       0.00
  knapsack         :       0.02       0.00       0.00       0.01       0.00       0.00       0.00       0.00       0.00       0.01
  setppc           :      16.25       0.02       0.19       5.97       0.00       0.00       0.00       0.10       2.16       7.82
  linear           :       7.21       2.36       0.00       3.19       0.00       0.00       0.00       0.00       0.99       0.67
  logicor          :       0.07       0.00       0.00       0.02       0.00       0.00       0.00       0.00       0.03       0.01
  bounddisjunction :       0.25       0.00       0.00       0.13       0.00       0.00       0.00       0.00       0.06       0.06
  benders          :       0.00       0.00       0.00       0.00       0.00       0.00       0.00       0.00       0.00       0.00
  countsols        :       0.00       0.00       0.00       0.00       0.00       0.00       0.00       0.00       0.00       0.00
  components       :       0.00       0.00       0.00       0.00       0.00       0.00       0.00       0.00       0.00       0.00
Propagators        : #Propagate   #ResProp    Cutoffs    DomReds
  dualfix          :          3          0          0          0
  genvbounds       :          0          0          0          0
  nlobbt           :          0          0          0          0
  obbt             :          0          0          0          0
  probing          :          0          0          0          0
  pseudoobj        :       4691         12          0         43
  redcost          :       2959          0          0     779696
  rootredcost      :          3          0          0        902
  symmetry         :          0          0          0          0
  vbounds          :       6839          0          0          0
Propagator Timings :  TotalTime  SetupTime   Presolve  Propagate    ResProp    SB-Prop
  dualfix          :       0.01       0.00       0.00       0.00       0.00       0.00
  genvbounds       :       0.01       0.00       0.00       0.00       0.00       0.00
  nlobbt           :       0.00       0.00       0.00       0.00       0.00       0.00
  obbt             :       0.00       0.00       0.00       0.00       0.00       0.00
  probing          :      19.63       0.00      19.63       0.00       0.00       0.00
  pseudoobj        :       0.13       0.00       0.00       0.10       0.03       0.00
  redcost          :       4.26       0.00       0.00       4.26       0.00       0.00
  rootredcost      :       0.15       0.00       0.00       0.15       0.00       0.00
  symmetry         :       0.00       0.00       0.00       0.00       0.00       0.00
  vbounds          :       0.10       0.00       0.04       0.05       0.00       0.01
Conflict Analysis  :       Time      Calls    Success    DomReds  Conflicts   Literals    Reconvs ReconvLits   Dualrays   Nonzeros   LP Iters   (pool size: [10000,10000])
  propagation      :       1.46        148        147          -       1228     2329.5          3     1611.0          -          -          -
  infeasible LP    :       4.61         92         35          -         80     1759.5          0        0.0         29      216.2          0
  bound exceed. LP :     177.20        559        551          -       3726     1703.7         35      291.7         10        1.0       8780
  strong branching :       0.00          0          0          -          0        0.0          0        0.0          -          -          0
  pseudo solution  :       0.00          0          0          -          0        0.0          0        0.0          -          -          -
  applied globally :      94.10          -          -         28       2281     1103.0          -          -         39          -          -
  applied locally  :          -          -          -          0        104     3631.3          -          -          0          -          -
Separators         :   ExecTime  SetupTime      Calls  RootCalls    Cutoffs    DomReds  FoundCuts ViaPoolAdd  DirectAdd    Applied ViaPoolApp  DirectApp      Conss
  cut pool         :       0.00          -          0          0          -          -          0          0          -          -          -          -          -    (maximal pool size:          0)
  aggregation      :       1.39       0.00         54          1          0          0          0          0          0          0          0          0          0
  > cmir           :          -          -          -          -          -          -          -          0          0          0          0          0          -
  > flowcover      :          -          -          -          -          -          -          -          0          0          0          0          0          -
  > knapsackcover  :          -          -          -          -          -          -          -          0          0          0          0          0          -
  cgmip            :       0.00       0.00          0          0          0          0          0          0          0          0          0          0          0
  clique           :      21.40       0.00          1          1          0          0          0          0          0          0          0          0          0
  closecuts        :       0.00       0.00          0          0          0          0          0          0          0          0          0          0          0
  convexproj       :       0.00       0.00          0          0          0          0          0          0          0          0          0          0          0
  disjunctive      :       0.00       0.00          0          0          0          0          0          0          0          0          0          0          0
  eccuts           :       0.00       0.00          0          0          0          0          0          0          0          0          0          0          0
  gauge            :       0.00       0.00          0          0          0          0          0          0          0          0          0          0          0
  gomory           :       3.57       0.00         54          1          0          0          0          0          0          0          0          0          0
  > gomorymi       :          -          -          -          -          -          -          -          0          0          0          0          0          -
  > strongcg       :          -          -          -          -          -          -          -          0          0          0          0          0          -
  impliedbounds    :       0.11       0.00         54          1          0          0          0          0          0          0          0          0          0
  interminor       :       0.00       0.00          0          0          0          0          0          0          0          0          0          0          0
  intobj           :       0.00       0.00          0          0          0          0          0          0          0          0          0          0          0
  mcf              :       0.02       0.00          1          1          0          0          0          0          0          0          0          0          0
  minor            :       0.00       0.00          0          0          0          0          0          0          0          0          0          0          0
  mixing           :       0.00       0.00         54          1          0          0          0          0          0          0          0          0          0
  oddcycle         :       0.00       0.00          0          0          0          0          0          0          0          0          0          0          0
  rapidlearning    :       0.01       0.00          0          0          0          0          0          0          0          0          0          0          0
  rlt              :       0.00       0.00          1          1          0          0          0          0          0          0          0          0          0
  zerohalf         :       0.48       0.00         54          1          0          0          0          0          0          0          0          0          0
Cutselectors       :   ExecTime  SetupTime      Calls  RootCalls   Selected     Forced   Filtered  RootSelec   RootForc   RootFilt 
  hybrid           :       0.00       0.00          0          0          0          0          0          0          0          0
Pricers            :   ExecTime  SetupTime      Calls       Vars
  problem variables:       0.00          -          0          0
Branching Rules    :   ExecTime  SetupTime   BranchLP  BranchExt   BranchPS    Cutoffs    DomReds       Cuts      Conss   Children
  allfullstrong    :       0.00       0.00          0          0          0          0          0          0          0          0
  cloud            :       0.00       0.00          0          0          0          0          0          0          0          0
  distribution     :       0.00       0.00          0          0          0          0          0          0          0          0
  fullstrong       :       0.00       0.00          0          0          0          0          0          0          0          0
  inference        :       0.00       0.00          0          0          0          0          0          0          0          0
  leastinf         :       0.00       0.00          0          0          0          0          0          0          0          0
  lookahead        :       0.00       0.00          0          0          0          0          0          0          0          0
  mostinf          :       0.00       0.00          0          0          0          0          0          0          0          0
  multaggr         :       0.00       0.00          0          0          0          0          0          0          0          0
  nodereopt        :       0.00       0.00          0          0          0          0          0          0          0          0
  pscost           :       0.00       0.00          0          0          0          0          0          0          0          0
  random           :       0.00       0.00          0          0          0          0          0          0          0          0
  relpscost        :    1037.59       0.00        769          0          0          0       1074          0       1536       1234
  vanillafullstrong:       0.00       0.00          0          0          0          0          0          0          0          0
Primal Heuristics  :   ExecTime  SetupTime      Calls      Found       Best
  LP solutions     :       0.00          -          -          1          1
  relax solutions  :       0.00          -          -          0          0
  pseudo solutions :       0.00          -          -          0          0
  strong branching :       0.03          -          -          1          1
  actconsdiving    :       0.00       0.00          0          0          0
  adaptivediving   :       4.24       0.00          6          0          0
  alns             :       2.80       0.00          5          0          0
  bound            :       0.00       0.00          0          0          0
  clique           :       0.84       0.00          1          1          1
  coefdiving       :       0.00       0.00          0          0          0
  completesol      :       0.00       0.00          0          0          0
  conflictdiving   :      49.48       0.00          4          0          0
  crossover        :       0.30       0.00          1          0          0
  dins             :       0.00       0.00          0          0          0
  distributiondivin:      21.59       0.00          3          0          0
  dps              :       0.00       0.00          0          0          0
  dualval          :       0.00       0.00          0          0          0
  farkasdiving     :       0.00       0.00          0          0          0
  feaspump         :     108.87       0.00          2          0          0
  fixandinfer      :       0.00       0.00          0          0          0
  fracdiving       :       8.63       0.00          4          0          0
  gins             :       0.37       0.00          0          0          0
  guideddiving     :       2.61       0.00          4          0          0
  indicator        :       0.00       0.00          0          0          0
  intdiving        :       0.00       0.00          0          0          0
  intshifting      :       0.00       0.00          0          0          0
  linesearchdiving :       7.48       0.00          4          0          0
  localbranching   :       0.00       0.00          0          0          0
  locks            :       0.31       0.00          1          0          0
  lpface           :       0.00       0.00          0          0          0
  mpec             :       0.00       0.00          0          0          0
  multistart       :       0.00       0.00          0          0          0
  mutation         :       0.00       0.00          0          0          0
  nlpdiving        :       0.00       0.00          0          0          0
  objpscostdiving  :      11.03       0.00          3          0          0
  octane           :       0.00       0.00          0          0          0
  ofins            :       0.00       0.00          0          0          0
  oneopt           :       0.16       0.00          3          0          0
  padm             :       0.00       0.00          0          0          0
  proximity        :       0.00       0.00          0          0          0
  pscostdiving     :       2.36       0.00          4          0          0
  randrounding     :       0.20       0.00         33          0          0
  rens             :       0.31       0.00          1          0          0
  reoptsols        :       0.00       0.00          0          0          0
  repair           :       0.00       0.00          0          0          0
  rins             :       2.17       0.00          6          0          0
  rootsoldiving    :      50.72       0.00          2          0          0
  rounding         :       2.43       0.00        340          0          0
  shiftandpropagate:       0.00       0.00          0          0          0
  shifting         :       3.71       0.00         70          0          0
  simplerounding   :       0.00       0.00          0          0          0
  subnlp           :       0.00       0.00          0          0          0
  trivial          :       0.09       0.00          2          0          0
  trivialnegation  :       0.00       0.00          0          0          0
  trustregion      :       0.00       0.00          0          0          0
  trysol           :       0.00       0.00          0          0          0
  twoopt           :       0.00       0.00          0          0          0
  undercover       :       0.00       0.00          0          0          0
  vbounds          :      42.74       0.00          1          0          0
  veclendiving     :       0.87       0.00          4          0          0
  zeroobj          :       0.00       0.00          0          0          0
  zirounding       :       0.14       0.00        617          0          0
  other solutions  :          -          -          -          0          -
LP                 :       Time      Calls Iterations  Iter/call   Iter/sec  Time-0-It Calls-0-It    ItLimit
  primal LP        :       0.00          0          0       0.00          -       0.00          0
  dual LP          :    1287.49       2799    1346342     998.03    1045.71      13.19       1450
  lex dual LP      :       0.00          0          0       0.00          -
  barrier LP       :       0.00          0          0       0.00          -       0.00          0
  resolve instable :       0.00          0          0       0.00          -
  diving/probing LP:     237.94         50      74099    1481.98     311.42
  strong branching :     872.31       1328     801224     603.33     918.50          -          -       1360
    (at root node) :          -         32      24970     780.31          -
  conflict analysis:      57.91        878       8780      10.00     151.60
B&B Tree           :
  number of runs   :          1
  nodes            :       1235 (617 internal, 618 leaves)
  feasible leaves  :          1
  infeas. leaves   :         57
  objective leaves :        560
  nodes (total)    :       1235 (617 internal, 618 leaves)
  nodes left       :          0
  max depth        :         75
  max depth (total):         75
  backtracks       :        281 (22.8%)
  early backtracks :          0 (0.0%)
  nodes exc. ref.  :          0 (0.0%)
  delayed cutoffs  :          0
  repropagations   :         60 (209 domain reductions, 0 cutoffs)
  avg switch length:       7.35
  switching time   :       6.53
Root Node          :
  First LP value   : +8.66666666666666e+00
  First LP Iters   :       1488 (372.00 Iter/sec)
  First LP Time    :       4.00
  Final Dual Bound : +8.79185105308208e+00
  Final Root Iters :       1488
  Root LP Estimate : +1.21099902277613e+01
Solution           :
  Solutions found  :          3 (3 improvements)
  First Solution   : +4.00000000000000e+01   (in run 1, after 1 nodes, 41.20 seconds, depth 6, found by <clique>)
  Gap First Sol.   :     900.00 %
  Gap Last Sol.    :      70.61 %
  Primal Bound     : +1.50000000000000e+01   (in run 1, after 7 nodes, 563.25 seconds, depth 4, found by <relaxation>)
  Dual Bound       : +1.50000000000000e+01
  Gap              :       0.00 %
Integrals          :      Total       Avg%
  primal-dual      :  105121.10      38.00
  primal-ref       :          -          - (not evaluated)
  dual-ref         :          -          - (not evaluated)
written solution information to file <results/final_miplib_symretope_if_extended_generating_set_cpx_v802__settings_final_nosym_norestarts__3__square37.mps.gz.sol>
@04 1686666392
